[Molden Format]
made by pyscf v[2.8.0]
[Atoms] (AU)
O   1   8     0.01425609388372     0.75162533796288     0.00000000000000
H   2   1    -1.44961457933223    -0.34845226928693     0.00000000000000
H   3   1     1.43535848544851    -0.40317306867596     0.00000000000000
[GTO]
1 0
 s    6 1.00
             5484.6717   0.001831099805527
             825.23495   0.013950098518422
             188.04696    0.06844509273075
               52.9645    0.23271427528445
              16.89757    0.47019295006289
             5.7996353    0.35852086192309
 s    3 1.00
             15.539616   -0.11077750382508
             3.5999336   -0.14802630511126
             1.0137618     1.1307670390447
 s    1 1.00
             0.2700058                   1
 p    3 1.00
             15.539616   0.070874299543311
             3.5999336    0.33975279781076
             1.0137618    0.72715859531445
 p    1 1.00
             0.2700058                   1
 d    1 1.00
                   0.8                   1

2 0
 s    3 1.00
             18.731137    0.03349459952309
             2.8253937    0.23472694665786
             0.6401217    0.81375731841339
 s    1 1.00
             0.1612778                   1

3 0
 s    3 1.00
             18.731137    0.03349459952309
             2.8253937    0.23472694665786
             0.6401217    0.81375731841339
 s    1 1.00
             0.1612778                   1

[5d]
[7f]
[9g]

[MO]
 Sym= A
 Ene=               0
 Spin= Alpha
 Occup=    1.00000
   1      0.99579892068058
   2     0.021920354324005
   3    -0.0080525622637215
   4    -3.0888265639305e-05
   5    -0.0016284708205166
   6    -1.9717878698348e-19
   7    3.4673822818926e-05
   8    0.0018280586894273
   9    7.1693818478752e-20
  10    0.00027552191786943
  11    6.4243683821025e-20
  12    1.0323877098878e-19
  13    -0.00012261434433952
  14    4.6535402135121e-06
  15    0.00029579563785012
  16    0.0018944415840649
  17    0.00029579698070044
  18    0.0018944389539342
 Sym= A
 Ene=               1
 Spin= Alpha
 Occup=    1.00000
   1     -0.21418196675298
   2      0.46902217864747
   3      0.49665924307208
   4    -0.0016999281841892
   5     -0.08961818331388
   6    7.4878491806074e-18
   7    -0.0010893669187945
   8    -0.057432807322689
   9    3.7927025654128e-19
  10    -0.016992028537142
  11    -1.5806346663597e-18
  12    7.1244365492426e-19
  13    0.0027897063001768
  14    -0.00010585226483922
  15      0.12830426924554
  16    -0.0075550686863729
  17      0.12830410575327
  18    -0.0075550364884694
 Sym= A
 Ene=               2
 Spin= Alpha
 Occup=    1.00000
   1    -6.4937890388888e-08
   2    1.3313153007929e-07
   3    3.0712841896497e-07
   4      0.50538381381987
   5    -0.0095855126857659
   6    1.470374223838e-16
   7      0.30954074979559
   8    -0.0058710352221823
   9    1.8022193850386e-16
  10    8.1050472214104e-09
  11    -2.3538319037623e-18
  12    1.3222955831646e-16
  13    -0.001943720191647
  14     -0.05122025650488
  15     -0.22949216939438
  16     -0.11418112601496
  17      0.22949204248512
  18      0.11418116281714
 Sym= A
 Ene=               3
 Spin= Alpha
 Occup=    1.00000
   1    -0.069976710363445
   2      0.17142764239243
   3      0.28102336926368
   4     0.010484252808587
   5      0.55276292867876
   6    5.1719910188173e-17
   7    0.0077309722262461
   8      0.40760216773225
   9    1.0104932143277e-16
  10     0.023559018707455
  11    -1.6494072445937e-18
  12    -9.0632446830339e-18
  13     0.026348949377712
  14    -0.00099988249821328
  15     -0.14231701213943
  16    -0.079950871413599
  17     -0.14231719863399
  18    -0.079951073991284
 Sym= A
 Ene=               4
 Spin= Alpha
 Occup=    1.00000
   1    1.3775960648415e-17
   2    2.0758008170787e-17
   3    -2.279502057322e-16
   4    -4.5644508006714e-17
   5    1.2133247547971e-16
   6      0.63953114602734
   7    -2.2001166156683e-16
   8    -2.5972701528953e-17
   9      0.51157929276292
  10    -1.0261471522186e-16
  11    -0.00063485002464068
  12    -0.033469793339943
  13    4.7537613523333e-17
  14    4.1990663254404e-17
  15    4.5486046436394e-17
  16    5.4262857532328e-17
  17    -7.8348360878981e-17
  18    2.6046867947118e-16
 Sym= A
 Ene=               5
 Spin= Alpha
 Occup=    0.00000
   1    -0.085792494749972
   2      0.10251204360756
   3       1.1752219919895
   4    -0.0042319862403881
   5     -0.22313708120411
   6    4.531567255117e-17
   7    -0.0093148725727594
   8     -0.49113066261379
   9    8.9152266578649e-17
  10    -0.013888662368967
  11    -4.3203437186701e-18
  12    -5.3359639411538e-18
  13    -0.0077381790232919
  14    0.00029364920368525
  15    -0.058099230746891
  16     -0.99030301862317
  17    -0.058099397636021
  18     -0.99030431959891
 Sym= A
 Ene=               6
 Spin= Alpha
 Occup=    0.00000
   1    6.9320395376151e-08
   2    -5.1184989507719e-08
   3    -1.4297177119997e-06
   4      0.33316218812642
   5    -0.006319116907798
   6    1.0110102244563e-16
   7      0.82683479895187
   8    -0.015682504510592
   9    7.865966233645e-17
  10    2.0935785292583e-08
  11    1.040039516363e-17
  12    -1.2317943844373e-16
  13    -0.00082527237650639
  14    -0.021746873959663
  15     0.053470336554132
  16       1.3709888433983
  17    -0.053470390744014
  18      -1.3709868669585
 Sym= A
 Ene=               7
 Spin= Alpha
 Occup=    0.00000
   1    6.6262358483506e-08
   2    -4.6386086396026e-07
   3    9.4996330767152e-07
   4     -0.10673976283169
   5    0.0020252613780228
   6    6.174367836253e-16
   7     -0.61064024524215
   8     0.011581854908638
   9    -6.8932224833094e-16
  10    -2.4201705063957e-07
  11    2.2845356125425e-16
  12    -2.5526591772553e-17
  13    -0.0075249705106024
  14     -0.19829943436947
  15     -0.83887493988065
  16      0.50015571418093
  17      0.83887737677212
  18     -0.50015800270245
 Sym= A
 Ene=               8
 Spin= Alpha
 Occup=    0.00000
   1     0.063760829389088
   2     -0.31092701107155
   3      0.12866273283953
   4    0.0069127966717536
   5      0.36447995636481
   6    -1.7025731719148e-14
   7    0.0031481034013195
   8      0.16585186655172
   9    1.8254063235305e-14
  10     -0.18069513362245
  11    -1.272289332051e-17
  12    -2.5925306458714e-16
  13      0.12254842129925
  14    -0.004650153760245
  15      0.87327510716284
  16     -0.49409329215272
  17      0.87327262552566
  18     -0.49409372117114
 Sym= A
 Ene=               9
 Spin= Alpha
 Occup=    0.00000
   1    -1.6631531507068e-15
   2    9.8379456084534e-15
   3    -3.6483569074365e-15
   4    -5.8756683173406e-16
   5    3.8429631531212e-15
   6       -0.962806969142
   7    2.5937419524432e-17
   8    -1.6018359400837e-14
   9       1.0359856825616
  10    3.5749886485454e-15
  11    -0.00028393325072705
  12    -0.014969968027689
  13    -2.7177736442471e-15
  14    -1.1367011991784e-17
  15    -1.8220758376335e-14
  16    8.6476352292679e-15
  17    -1.6790701990585e-14
  18    6.8342010961356e-15
 Sym= A
 Ene=              10
 Spin= Alpha
 Occup=    0.00000
   1     0.046260581495659
   2     -0.37118330335482
   3      0.10575360593839
   4    -0.017119934943557
   5     -0.90258839481387
   6    -1.1048666120141e-14
   7     0.021659622649081
   8       1.1419271396121
   9    1.2191582186865e-14
  10    -0.030055317565576
  11    -7.0766786537403e-18
  12    -2.0936752474265e-16
  13     0.043141182644999
  14    -0.0016372586600833
  15      0.17097585406391
  16     0.098917610986736
  17       0.1709762697965
  18     0.098916793372725
 Sym= A
 Ene=              11
 Spin= Alpha
 Occup=    0.00000
   1    -4.1637678605739e-08
   2    2.8473987735121e-07
   3    -4.1590471243583e-07
   4      -1.0340573541995
   5     0.019613289403081
   6    5.3036363955808e-16
   7       1.5344597062781
   8    -0.029104965465401
   9    -4.2637002222258e-16
  10    2.656944021134e-07
  11    -1.2739941106452e-16
  12    2.3742074858554e-16
  13    -0.00032457703975509
  14    -0.0085486372825613
  15     -0.08503531975736
  16      0.88954034536992
  17     0.085034032656677
  18     -0.88953947589378
 Sym= A
 Ene=              12
 Spin= Alpha
 Occup=    0.00000
   1     0.064998482364209
   2      -1.5973342080944
   3       2.4822506085554
   4     0.004698375050697
   5       0.2477041041492
   6    -6.3244158672459e-17
   7    -0.013665590043432
   8     -0.72045688015254
   9    2.1375947550804e-17
  10      0.19872846631936
  11    -1.5245380714081e-17
  12    2.7206162600736e-18
  13     -0.16525079454168
  14    0.0062711174091412
  15     -0.21108389298813
  16     -0.62772406801196
  17     -0.21108403018824
  18     -0.62772285646979
 Sym= A
 Ene=              13
 Spin= Alpha
 Occup=    0.00000
   1    0.00079898105974641
   2     -0.11521708682103
   3      0.22307349172412
   4    0.00015655701185356
   5     0.008254979176702
   6    -1.096363662877e-16
   7    -0.0025315866970944
   8     -0.13347089440394
   9    1.0568613419841e-16
  10      0.38456054852325
  11    -1.3692478868072e-16
  12    -8.708738890731e-17
  13      0.91679167002277
  14    -0.034790724012345
  15    -0.076176787755541
  16    -0.041944623478817
  17    -0.076176812601349
  18    -0.041944545298895
 Sym= A
 Ene=              14
 Spin= Alpha
 Occup=    0.00000
   1    8.9183714186964e-19
   2    -4.1633521433757e-17
   3    7.4393379067848e-17
   4    -2.0552139223618e-16
   5    8.5317283612287e-18
   6    2.3320321661382e-08
   7    8.1107921952239e-16
   8    -4.0522909203967e-17
   9    2.6686665754377e-08
  10    5.4423159669364e-17
  11       0.9998201832772
  12    -0.018963151414101
  13    1.256014905247e-16
  14    8.4816433595426e-17
  15    3.4268630178216e-16
  16    1.7781903479263e-16
  17    -3.5402671121881e-16
  18    -2.238654483358e-16
 Sym= A
 Ene=              15
 Spin= Alpha
 Occup=    0.00000
   1    5.6310336543762e-19
   2    -1.612640206966e-17
   3    2.0187434683418e-17
   4    2.1451650146554e-16
   5    -3.0319460641504e-17
   6    0.0069977505631082
   7    5.6539669275376e-17
   8    2.3095175688523e-17
   9     0.032658962381863
  10    3.1492943897735e-17
  11      0.01895039469012
  12      0.99914767270883
  13    6.889518478526e-17
  14    -4.005856869129e-16
  15    2.7708957719855e-16
  16    9.1493175149603e-17
  17    -2.9516745048035e-16
  18    -8.5861074198124e-17
 Sym= A
 Ene=              16
 Spin= Alpha
 Occup=    0.00000
   1    -0.018590851893442
   2     -0.57183421176353
   3       1.3448842596331
   4    0.0010082979331866
   5     0.053175485191942
   6    9.8278474348418e-17
   7    -0.013668115146056
   8     -0.72064542506217
   9    -2.4793583068821e-18
  10      -1.0071080525993
  11    8.8983425254615e-19
  12    -1.6176735444251e-18
  13      0.39293461098911
  14    -0.014912498532616
  15     -0.83176553499265
  16     -0.11623862029884
  17     -0.83176700098862
  18     -0.11623806705731
 Sym= A
 Ene=              17
 Spin= Alpha
 Occup=    0.00000
   1    -6.2454574223675e-08
   2    -6.1967487215954e-07
   3    2.4391118209187e-06
   4     0.031175751784685
   5    -0.00059147376607399
   6    3.2232851985228e-17
   7     -0.83648243050478
   8     0.015864604346686
   9    -3.7670121470515e-17
  10    -1.3477748244503e-06
  11    3.8800723685203e-19
  12    2.5452884154907e-16
  13     0.048194074542689
  14       1.2699775548472
  15     -0.92837553011555
  16     0.048987091510659
  17      0.92837250171966
  18     -0.04898767988407
